&CONTROL
   calculation  = 'scf'
   outdir       = '/home/aldair1809/Documentos/QE/4BFO/temp_tipoA/scf'
   prefix       = 'bifeo3'
   pseudo_dir   = '/home/aldair1809/Programas/QE/q-e-qe-7.3/pseudo'
   restart_mode = 'from_scratch'
   verbosity    = 'high'
 /
&SYSTEM
   degauss                   = 0.01
   ecutwfc                   = 40
   ecutrho                   = 320
   ibrav                     = 4
   celldm(1)                 = 10.45310187
   celldm(3)                 = 2.46741507
   nat                       = 30
   nspin                     = 2
   ntyp                      = 4
   occupations               = 'smearing'
   smearing                  = 'm-p'
   starting_magnetization(3) = -0.8
   starting_magnetization(4) = 0.8
   lda_plus_U                = .true.
   Hubbard_U(3)              = 4.1
   Hubbard_U(4)              = 4.1
 /
&ELECTRONS
   conv_thr         = 1.0d-7
   diagonalization  = "cg"
   electron_maxstep = 300
   mixing_beta      = 0.4
   mixing_mode      = "plain"
   startingpot      = 'random'
   startingwfc      = "atomic+random"
 /
ATOMIC_SPECIES
    O    15.9994   o_pbe_v1.2.uspp.F.UPF
    Bi   208.9804  bi_pbe_v1.uspp.F.UPF
    Fe1  55.845    fe_pbe_v1.5.uspp.F.UPF
    Fe2  55.845    fe_pbe_v1.5.uspp.F.UPF
ATOMIC_POSITIONS (crystal)
Fe1          -0.0000000000       -0.0000000000        0.7770558675
Fe1           0.3333330000        0.6666670000        0.9486980231
Fe1           0.6666670000        0.3333330000        0.6074233709
Fe2           0.6666670000        0.3333330000        0.1074122376
Fe2          -0.0000000000       -0.0000000000        0.2770666593
Fe2           0.3333330000        0.6666670000        0.4487218049
Bi            0.6666670000        0.3333330000        0.8391173556
Bi            0.3333330000        0.6666670000        0.6761593051
Bi            0.3333330000        0.6666670000        0.1761341014
Bi           -0.0000000000       -0.0000000000        0.0045445543
Bi           -0.0000000000       -0.0000000000        0.5045485054
Bi            0.6666670000        0.3333330000        0.3390973735
O             0.0805536121        0.7641540780        0.8800022704
O             0.2358459220        0.3163985341        0.8800022704
O             0.6836014659        0.9194463879        0.8800022704
O             0.7442022079        0.6492358335        0.7128094568
O             0.3507641665        0.0949673743        0.7128094568
O             0.9050326257        0.2557977921        0.7128094568
O             0.7442113789        0.0949669281        0.2127997945
O             0.9050330719        0.6492454508        0.2127997945
O             0.3507545492        0.2557886211        0.2127997945
O             0.4155694309        0.9826579740        0.0458100536
O             0.0173420260        0.4329114569        0.0458100536
O             0.5670885431        0.5844305691        0.0458100536
O             0.4155546136        0.4328992159        0.5458325815
O             0.5671007841        0.9826553977        0.5458325815
O             0.0173446023        0.5844453864        0.5458325815
O             0.0805338269        0.3163939350        0.3800154571
O             0.6836060650        0.7641388918        0.3800154571
O             0.2358611082        0.9194661731        0.3800154571

K_POINTS automatic
  3 3 2 0 0 0
