&CONTROL
   calculation  = 'nscf'
   outdir       = '/home/aldair1809/Documentos/QE/4BFO/temp_tipoA/nscf'
   prefix       = 'bifeo3'
   pseudo_dir   = '/home/aldair1809/Programas/QE/q-e-qe-7.3/pseudo'
   restart_mode = 'from_scratch'
   verbosity    = 'high'
 /
&SYSTEM
   degauss                   = 0.01
   ecutwfc                   = 40
   ecutrho                   = 320
   ibrav                     = 4
   celldm(1)                 = 10.43573394
   celldm(3)                 = 2.45853299
   nat                       = 30
   nbnd                      = 176
   nspin                     = 2
   ntyp                      = 4
   occupations               = 'tetrahedra'
   smearing                  = 'm-p'
   nosym                     = .true.
   starting_magnetization(3) = -0.8
   starting_magnetization(4) = 0.8
   lda_plus_U                = .true.
   Hubbard_U(3)              = 4.1
   Hubbard_U(4)              = 4.1
 /
 
 &ELECTRONS
   conv_thr         = 1e-7
   diagonalization  = "cg"
   electron_maxstep = 300
   mixing_beta      = 0.4
   mixing_mode      = "plain"
   startingpot      = 'random'
   startingwfc      = "atomic+random"
 /
ATOMIC_SPECIES
    O    15.9994   o_pbe_v1.2.uspp.F.UPF
    Bi   208.9804  bi_pbe_v1.uspp.F.UPF
    Fe1  55.845    fe_pbe_v1.5.uspp.F.UPF
    Fe2  55.845    fe_pbe_v1.5.uspp.F.UPF

ATOMIC_POSITIONS (crystal)
Fe2           0.0000000000        0.0000000000        0.7772495689
Fe1           0.3333330000        0.6666670000        0.9438955412
Fe1           0.6666670000        0.3333330000        0.6106147604
Fe2           0.6666670000        0.3333330000        0.1106303246
Fe1          -0.0000000000       -0.0000000000        0.2772682519
Fe2           0.3333330000        0.6666670000        0.4438932836
Bi            0.6666670000        0.3333330000        0.8404339885
Bi            0.3333330000        0.6666670000        0.6735998860
Bi            0.3333330000        0.6666670000        0.1735970766
Bi           -0.0000000000       -0.0000000000        0.0070036121
Bi           -0.0000000000       -0.0000000000        0.5070111491
Bi            0.6666670000        0.3333330000        0.3404372992
O             0.0832213918        0.7676167372        0.8795660106
O             0.2323832628        0.3156036547        0.8795660106
O             0.6843963453        0.9167786082        0.8795660106
O             0.7498970473        0.6489280827        0.7129225878
O             0.3510719173        0.1009699647        0.7129225878
O             0.8990300353        0.2501029527        0.7129225878
O             0.7498872201        0.1009626346        0.2129316419
O             0.8990373654        0.6489255855        0.2129316419
O             0.3510744145        0.2501127799        0.2129316419
O             0.4166234887        0.9823791204        0.0461954964
O             0.0176208796        0.4342443683        0.0461954964
O             0.5657556317        0.5833765113        0.0461954964
O             0.4166179309        0.4342516508        0.5461937639
O             0.5657483492        0.9823662801        0.5461937639
O             0.0176337199        0.5833820691        0.5461937639
O             0.0832079553        0.3155927144        0.3795749188
O             0.6844072856        0.7676142409        0.3795749188
O             0.2323857591        0.9167920447        0.3795749188

K_POINTS automatic
   6 6 4 0 0 0
