 &CONTROL
   calculation  = 'scf'
   max_seconds  = 7200
   outdir       = '/home/aldair1809/Documentos/QE/4BFO/UHUBBARD/temp/ecut_ecutwfc_50.in'
   prefix       = 'bifeo3-scf'
   pseudo_dir   = '/home/aldair1809/Programas/QE/q-e-qe-7.3/pseudo'
   restart_mode = 'from_scratch'
   verbosity    = 'high'
 /

 &SYSTEM
   degauss                   = 0.01
   ecutwfc                   = 50
   ibrav                     = 0
   nat                       = 30
   nbnd                      = 200
   nspin                     = 2
   ntyp                      = 4
   occupations               = 'smearing'
   smearing                  = 'gaussian'
   starting_magnetization(3) = -0.8
   starting_magnetization(4) = 0.8
 /

 &ELECTRONS
   conv_thr         = 1.0000000000e-3
   diagonalization  = "cg"
   electron_maxstep = 300
   mixing_beta      = 0.2
   mixing_mode      = "plain"
   startingpot      = 'random'
   startingwfc      = "atomic+random"
 /
ATOMIC_SPECIES
    O    15.9994   o_pbe_v1.2.uspp.F.UPF
    Bi   208.9804  bi_pbe_v1.uspp.F.UPF
    Fe1  55.845    fe_pbe_v1.5.uspp.F.UPF
    Fe2  55.845    fe_pbe_v1.5.uspp.F.UPF

CELL_PARAMETERS (angstrom)
     5.581152231000000   -0.000000000000000   -0.000000000000000
    -2.790576116000000    4.833419615000000   -0.000000000000000
     0.000000000000000   -0.000000000000000   13.928056679000001

ATOMIC_POSITIONS (crystal)
  Fe1     -0.000000000000  -0.000000000000   0.776765227400
  Fe1      0.333333000000   0.666667000000   0.946305821900
  Fe1      0.666667000000   0.333333000000   0.609115171000
  Fe2      0.666667000000   0.333333000000   0.109099121600
  Fe2      0.000000000000   0.000000000000   0.276775267000
  Fe2      0.333333000000   0.666667000000   0.446292071700
  Bi       0.666667000000   0.333333000000   0.835211655500
  Bi       0.333333000000   0.666667000000   0.669750761600
  Bi       0.333333000000   0.666667000000   0.169719876400
  Bi       0.000000000000   0.000000000000   0.000113047200
  Bi      -0.000000000000  -0.000000000000   0.500130805700
  Bi       0.666667000000   0.333333000000   0.335190950500
  O        0.067685598300   0.756551964700   0.882021196800
  O        0.243448035300   0.311132633600   0.882021196800
  O        0.688867366400   0.932314401700   0.882021196800
  O        0.731475025000   0.645449343200   0.715131215600
  O        0.354550656800   0.086026681800   0.715131215600
  O        0.913973318200   0.268524975000   0.715131215600
  O        0.731488370800   0.086028171500   0.215112456300
  O        0.913971828500   0.645461199300   0.215112456300
  O        0.354538800700   0.268511629200   0.215112456300
  O        0.407464854700   0.979531709300   0.046730853900
  O        0.020468290700   0.427933145400   0.046730853900
  O        0.572066854600   0.592535145300   0.046730853900
  O        0.407447769500   0.427924616900   0.546749920400
  O        0.572075383100   0.979523152600   0.546749920400
  O        0.020476847400   0.592552230500   0.546749920400
  O        0.067677550000   0.311129159100   0.382027097900
  O        0.688870840900   0.756547390900   0.382027097900
  O        0.243452609100   0.932322450000   0.382027097900

K_POINTS automatic
  2 2 1 0 0 0
