 &CONTROL
   calculation  = 'scf'
   outdir       = '/home/aldair1809/Documentos/QE/4BFO/temp/'
   prefix       = 'bifeo3'
   pseudo_dir   = '/home/aldair1809/Programas/QE/q-e-qe-7.3/pseudo'
   restart_mode = 'from_scratch'
   verbosity    = 'high'
 /

&SYSTEM
   degauss                   = 0.01
   ecutwfc                   = 30
   ecutrho                   = 240
   ibrav                     = 1
   a                         = 7.892
   nat                       = 40
   nspin                     = 2
   ntyp                      = 4
   occupations               = 'smearing'
   smearing                  = 'm-p'
   starting_magnetization(3) = -0.8
   starting_magnetization(4) = 0.8
 /
&ELECTRONS
   conv_thr         = 1e-5
   diagonalization  = "cg"
   electron_maxstep = 300
   mixing_beta      = 0.4
   mixing_mode      = "plain"
   startingpot      = 'random'
   startingwfc      = "atomic+random"
 /
ATOMIC_SPECIES
    O    15.9994   o_pbe_v1.2.uspp.F.UPF
    Bi   208.9804  bi_pbe_v1.uspp.F.UPF
    Fe1  55.845    fe_pbe_v1.5.uspp.F.UPF
    Fe2  55.845    fe_pbe_v1.5.uspp.F.UPF
ATOMIC_POSITIONS (crystal)
Bi   0.000000000000000   0.000000000000000   0.000000000000000 
Bi   0.500000000000000   0.500000000000000   0.000000000000000 
Bi   0.500000000000000   0.000000000000000   0.000000000000000 
Bi   0.000000000000000   0.500000000000000   0.500000000000000 
Bi   0.000000000000000   0.000000000000000   0.500000000000000 
Bi   0.500000000000000   0.500000000000000   0.500000000000000 
Bi   0.500000000000000   0.000000000000000   0.500000000000000 
Bi   0.000000000000000   0.500000000000000   0.000000000000000 
Fe2  0.250000000000000   0.250000000000000   0.250000000000000 
Fe2  0.750000000000000   0.750000000000000   0.250000000000000 
Fe1  0.750000000000000   0.250000000000000   0.250000000000000 
Fe1  0.250000000000000   0.750000000000000   0.750000000000000 
Fe2  0.250000000000000   0.250000000000000   0.750000000000000 
Fe2  0.750000000000000   0.750000000000000   0.750000000000000 
Fe1  0.750000000000000   0.250000000000000   0.750000000000000 
Fe1  0.250000000000000   0.750000000000000   0.250000000000000 
 O   0.250000000000000   0.250000000000000   0.000000000000000 
 O   0.250000000000000   0.000000000000000   0.250000000000000 
 O   0.000000000000000   0.250000000000000   0.250000000000000 
 O   0.750000000000000   0.750000000000000   0.000000000000000 
 O   0.750000000000000   0.250000000000000   0.000000000000000 
 O   0.250000000000000   0.750000000000000   0.500000000000000 
 O   0.250000000000000   0.250000000000000   0.500000000000000 
 O   0.750000000000000   0.750000000000000   0.500000000000000 
 O   0.750000000000000   0.250000000000000   0.500000000000000 
 O   0.250000000000000   0.750000000000000   0.000000000000000 
 O   0.750000000000000   0.500000000000000   0.250000000000000 
 O   0.750000000000000   0.000000000000000   0.250000000000000 
 O   0.250000000000000   0.500000000000000   0.750000000000000 
 O   0.250000000000000   0.000000000000000   0.750000000000000 
 O   0.750000000000000   0.500000000000000   0.750000000000000 
 O   0.750000000000000   0.000000000000000   0.750000000000000 
 O   0.250000000000000   0.500000000000000   0.250000000000000 
 O   0.500000000000000   0.750000000000000   0.250000000000000 
 O   0.500000000000000   0.250000000000000   0.250000000000000 
 O   0.000000000000000   0.750000000000000   0.750000000000000 
 O   0.000000000000000   0.250000000000000   0.750000000000000 
 O   0.500000000000000   0.750000000000000   0.750000000000000 
 O   0.500000000000000   0.250000000000000   0.750000000000000 
 O   0.000000000000000   0.750000000000000   0.250000000000000

K_POINTS automatic
  3 3 3 0 0 0
