 &CONTROL
   calculation  = 'vc-relax'
   outdir       = '/home/aldair1809/Documentos/QE/4BFO/geom_opt_cubic'
   prefix       = 'bifeo3-relax'
   max_seconds  = 36000
   pseudo_dir   = '/home/aldair1809/Programas/QE/q-e-qe-7.3/pseudo'
   restart_mode = 'restart'
   etot_conv_thr = 1e-4
   forc_conv_thr = 1e-3
 /
 &SYSTEM
   degauss                   = 0.01
   ecutwfc                   = 30
   ecutrho                   = 120
   ibrav                     = 1
   a                         = 7.54
   nat                       = 40
   nbnd                      = 200
   nspin                     = 2
   ntyp                      = 4
   occupations               = 'tetrahedra'
   smearing                  = 'm-p'
   starting_magnetization(3) = -0.8
   starting_magnetization(4) = 0.8
   tot_magnetization         = 0.0
 /

 &ELECTRONS
   conv_thr         = 1e-7
   diagonalization  = "cg"
   electron_maxstep = 300
   mixing_beta      = 0.2
   mixing_mode      = "plain"
 /
 &ions
 /
 &cell
 cell_dofree        = "ibrav"
 press              = 0.0
 press_conv_thr     = 0.5
 /
ATOMIC_SPECIES
    O    15.9994   o_pbe_v1.2.uspp.F.UPF
    Bi   208.9804  bi_pbe_v1.uspp.F.UPF
    Fe1  55.845    fe_pbe_v1.5.uspp.F.UPF
    Fe2  55.845    fe_pbe_v1.5.uspp.F.UPF
ATOMIC_POSITIONS (crystal)
Bi   0.000000000000000   0.000000000000000   0.000000000000000 
Bi   0.500000000000000   0.500000000000000   0.000000000000000 
Bi   0.500000000000000   0.000000000000000   0.000000000000000 
Bi   0.000000000000000   0.500000000000000   0.500000000000000 
Bi   0.000000000000000   0.000000000000000   0.500000000000000 
Bi   0.500000000000000   0.500000000000000   0.500000000000000 
Bi   0.500000000000000   0.000000000000000   0.500000000000000 
Bi   0.000000000000000   0.500000000000000   0.000000000000000 
Fe2  0.250000000000000   0.250000000000000   0.250000000000000 
Fe2  0.750000000000000   0.750000000000000   0.250000000000000 
Fe1  0.750000000000000   0.250000000000000   0.250000000000000 
Fe1  0.250000000000000   0.750000000000000   0.750000000000000 
Fe2  0.250000000000000   0.250000000000000   0.750000000000000 
Fe2  0.750000000000000   0.750000000000000   0.750000000000000 
Fe1  0.750000000000000   0.250000000000000   0.750000000000000 
Fe1  0.250000000000000   0.750000000000000   0.250000000000000 
 O   0.250000000000000   0.250000000000000   0.000000000000000 
 O   0.250000000000000   0.000000000000000   0.250000000000000 
 O   0.000000000000000   0.250000000000000   0.250000000000000 
 O   0.750000000000000   0.750000000000000   0.000000000000000 
 O   0.750000000000000   0.250000000000000   0.000000000000000 
 O   0.250000000000000   0.750000000000000   0.500000000000000 
 O   0.250000000000000   0.250000000000000   0.500000000000000 
 O   0.750000000000000   0.750000000000000   0.500000000000000 
 O   0.750000000000000   0.250000000000000   0.500000000000000 
 O   0.250000000000000   0.750000000000000   0.000000000000000 
 O   0.750000000000000   0.500000000000000   0.250000000000000 
 O   0.750000000000000   0.000000000000000   0.250000000000000 
 O   0.250000000000000   0.500000000000000   0.750000000000000 
 O   0.250000000000000   0.000000000000000   0.750000000000000 
 O   0.750000000000000   0.500000000000000   0.750000000000000 
 O   0.750000000000000   0.000000000000000   0.750000000000000 
 O   0.250000000000000   0.500000000000000   0.250000000000000 
 O   0.500000000000000   0.750000000000000   0.250000000000000 
 O   0.500000000000000   0.250000000000000   0.250000000000000 
 O   0.000000000000000   0.750000000000000   0.750000000000000 
 O   0.000000000000000   0.250000000000000   0.750000000000000 
 O   0.500000000000000   0.750000000000000   0.750000000000000 
 O   0.500000000000000   0.250000000000000   0.750000000000000 
 O   0.000000000000000   0.750000000000000   0.250000000000000
K_POINTS automatic
  2 2 2 0 0 0
