&CONTROL
   calculation  = 'nscf'
   outdir       = '/home/aldair1809/Documentos/QE/4BFO/temp_cubic/nscf'
   prefix       = 'bifeo3'
   pseudo_dir   = '/home/aldair1809/Programas/QE/q-e-qe-7.3/pseudo'
   restart_mode = 'from_scratch'
   verbosity    = 'high'
   lberry       = .true.
   gdir         = 2
   nppstr	= 6
 /
&SYSTEM
   degauss                   = 0.01
   ecutwfc                   = 35
   ecutrho                   = 280
   ibrav                     = 1
   a                         = 7.892
   nat                       = 40
   nspin                     = 2
   ntyp                      = 4
   occupations               = 'fixed'
   nosym                     = .true.
   starting_magnetization(3) = -0.8
   starting_magnetization(4) = 0.8
   lda_plus_U                = .true.
   Hubbard_U(3)              = 4.1
   Hubbard_U(4)              = 4.1
 /
 
 &ELECTRONS
   conv_thr         = 1e-7
   diagonalization  = "cg"
   electron_maxstep = 300
   mixing_beta      = 0.4
   mixing_mode      = "plain"
   startingpot      = 'random'
   startingwfc      = "atomic+random"
 /
ATOMIC_SPECIES
    O    15.9994   o_pbesol_v1.2.uspp.F.UPF
    Bi   208.9804  bi_pbesol_v1.uspp.F.UPF
    Fe1  55.845    fe_pbesol_v1.5.uspp.F.UPF
    Fe2  55.845    fe_pbesol_v1.5.uspp.F.UPF
ATOMIC_POSITIONS (crystal)
Bi   0.000000000000000   0.000000000000000   0.000000000000000 
Bi   0.500000000000000   0.500000000000000   0.000000000000000 
Bi   0.500000000000000   0.000000000000000   0.000000000000000 
Bi   0.000000000000000   0.500000000000000   0.500000000000000 
Bi   0.000000000000000   0.000000000000000   0.500000000000000 
Bi   0.500000000000000   0.500000000000000   0.500000000000000 
Bi   0.500000000000000   0.000000000000000   0.500000000000000 
Bi   0.000000000000000   0.500000000000000   0.000000000000000 
Fe2  0.250000000000000   0.250000000000000   0.250000000000000 
Fe2  0.750000000000000   0.750000000000000   0.250000000000000 
Fe1  0.750000000000000   0.250000000000000   0.250000000000000 
Fe1  0.250000000000000   0.750000000000000   0.750000000000000 
Fe2  0.250000000000000   0.250000000000000   0.750000000000000 
Fe2  0.750000000000000   0.750000000000000   0.750000000000000 
Fe1  0.750000000000000   0.250000000000000   0.750000000000000 
Fe1  0.250000000000000   0.750000000000000   0.250000000000000 
 O   0.250000000000000   0.250000000000000   0.000000000000000 
 O   0.250000000000000   0.000000000000000   0.250000000000000 
 O   0.000000000000000   0.250000000000000   0.250000000000000 
 O   0.750000000000000   0.750000000000000   0.000000000000000 
 O   0.750000000000000   0.250000000000000   0.000000000000000 
 O   0.250000000000000   0.750000000000000   0.500000000000000 
 O   0.250000000000000   0.250000000000000   0.500000000000000 
 O   0.750000000000000   0.750000000000000   0.500000000000000 
 O   0.750000000000000   0.250000000000000   0.500000000000000 
 O   0.250000000000000   0.750000000000000   0.000000000000000 
 O   0.750000000000000   0.500000000000000   0.250000000000000 
 O   0.750000000000000   0.000000000000000   0.250000000000000 
 O   0.250000000000000   0.500000000000000   0.750000000000000 
 O   0.250000000000000   0.000000000000000   0.750000000000000 
 O   0.750000000000000   0.500000000000000   0.750000000000000 
 O   0.750000000000000   0.000000000000000   0.750000000000000 
 O   0.250000000000000   0.500000000000000   0.250000000000000 
 O   0.500000000000000   0.750000000000000   0.250000000000000 
 O   0.500000000000000   0.250000000000000   0.250000000000000 
 O   0.000000000000000   0.750000000000000   0.750000000000000 
 O   0.000000000000000   0.250000000000000   0.750000000000000 
 O   0.500000000000000   0.750000000000000   0.750000000000000 
 O   0.500000000000000   0.250000000000000   0.750000000000000 
 O   0.000000000000000   0.750000000000000   0.250000000000000
K_POINTS automatic
  3 6 2 0 0 0
