&inputpp
prefix="bifeo3"
outdir="/home/aldair1809/Documentos/QE/4BFO/temp_tipoA/charge_density"
filplot="bifeo3.rho.dat"
plot_num=0
/
&plot
/
